results/filo/x-long/X-n157-k13.vrp_seed-5.vrp.sol
Route #1: 38 122 69 99 93 36 68 20 75 118 147 15
Route #2: 12 60 109 114 29 58 39 10 134 52 107 18
Route #3: 37 116 19 46 145 127 104 130 124 44 27 101
Route #4: 151 113 82 11 77 45 83 90 51 100 91 129
Route #5: 148 13 63 64 141 43 24 156 150 8 149 71
Route #6: 17 67 4 35 6 115 55 95 105 152 56 61
Route #7: 72 48 33 84 79 74 30 22 155 25 138 34
Route #8: 23 31 140 85 144 53 123 98 154 50 133 131
Route #9: 70 139 125 78 146 80 40 108 9 117 1 126
Route #10: 41 110 54 121 21 135 73 106 3 42 32 143
Route #11: 47 5 153 76 136 112 89 81 119 2 57 88
Route #12: 49 14 120 26 128 142 62 97 87 65 103 16
Route #13: 59 96 102 132 111 86 94 66 28 7 137 92
Cost 16876.000000